100
32
19
4
7
24
20
11
20
1
7
29
32
24
7
23
5
25
31
23
28
10
23
13
2
17
28
13
23
14
16
1
29
1
18
14
14
17
13
22
25
8
10
27
31
10
5
3
12
17
24
4
25
1
28
28
25
4
18
29
22
17
13
18
25
31
7
6
3
20
21
19
3
23
8
1
29
14
19
17
11
18
17
9
3
8
15
21
16
23
25
7
1
27
21
10
12
18
9
29
6
19